c description: Random 4-CNF over 5 variables and 3 clauses
c generator: CNFgen (0.9.2)
c copyright: (C) 2012-2022 Massimo Lauria <massimo.lauria@uniroma1.it>
c url: https://massimolauria.net/cnfgen
c command line: cnfgen randkcnf 4 5 3
c
p cnf 5 3
1 -2 -3 -4 0
1 2 3 4 0
1 2 4 5 0
